networks/zoo_84_1377/zoo_84_1377.txt
Number of groups: 51
Flow 1: {2 44} 
Flow 6: {1 4} {4 2} {2 7} 
Flow 8: {9 51} 
Flow 13: {15 57} 
Flow 17: {19 61} 
Flow 21: {1 36} {36 38} {38 23} {23 65} 
Flow 24: {1 4} {4 31} {31 30} {30 10} {10 28} 
Flow 26: {30 72} 
Flow 27: {31 73} 
Flow 29: {1 4} {4 31} {31 33} {33 75} 
Flow 54: {17 59} 
Flow 54: {34 32} Flow 64: {32 27} {27 69} 
Flow 68: {4 31} {31 73} 
Flow 84: {2 7} {7 49} 
Flow 95: {20 62} 
Flow 95: {23 32} {32 35} Flow 125: {4 36} {36 35} {35 12} {12 54} 
Flow 205: {7 8} {8 31} {31 73} 
Flow 206: {7 2} {2 34} {34 32} {32 74} 
Flow 207: {7 8} {8 36} {36 35} {35 77} 
Flow 250: {8 40} {40 41} 
Flow 258: {42 8} {8 7} 
Flow 275: {30 31} {31 25} {25 67} 
Flow 276: {5 32} {32 38} {38 26} {26 68} 
Flow 314: {10 9} {9 29} {29 71} 
Flow 331: {11 35} {35 32} {32 5} {5 17} {17 59} 
Flow 336: {11 35} {35 77} 
Flow 338: {11 35} {35 37} 
Flow 355: {12 35} {35 77} 
Flow 370: {13 24} {24 15} {15 57} 
Flow 377: {13 24} {24 8} {8 30} Flow 379: {8 31} {31 73} 
Flow 385: {24 8} {8 36} Flow 411: {14 24} {24 41} {41 83} 
Flow 422: {8 30} {30 10} {10 52} 
Flow 427: {15 24} {24 16} {16 58} 
Flow 467: {24 14} {14 56} 
Flow 473: {16 24} {24 8} {8 2} {2 21} {21 63} 
Flow 479: {24 8} {8 2} {2 34} {34 32} {32 27} {27 69} 
Flow 503: {42 8} {8 24} {13 55} 
Flow 512: {17 5} {5 6} {6 29} {29 30} {30 72} 
Flow 561: {18 35} {35 38} {38 80} 
Flow 574: {36 8} {8 24} {14 56} 
Flow 579: {19 35} {35 22} {22 64} 
Flow 595: {35 32} {32 23} {23 3} {3 45} 
Flow 596: {20 35} {35 36} {36 4} {4 46} 
Flow 601: {36 8} {8 30} 
Flow 632: {6 9} {9 51} 
Flow 649: {2 34} {34 32} Flow 651: {21 2} {2 3} {3 23} {23 39} 
Flow 661: {36 8} {8 50} 
Flow 664: {22 35} {35 11} {11 53} 
Flow 672: {19 61} 
Flow 700: {5 6} {6 48} 
Flow 700: {23 32} Flow 701: {3 2} {2 7} 
Flow 723: {38 31} {31 73} 
Flow 755: {2 21} {21 63} 
Flow 755: {24 8} Flow 798: {25 26} {26 38} {38 32} {32 34} {34 76} 
Flow 806: {31 8} {8 42} Flow 807: {26 25} {25 31} {31 4} {4 2} {2 44} 
Flow 808: {26 38} {38 32} {32 5} {5 47} 
Flow 809: {26 25} {25 31} {31 8} {8 50} 
Flow 816: {31 8} {8 24} {24 66} 
Flow 829: {3 2} {2 8} {8 50} 
Flow 838: {27 32} {32 35} {35 19} {19 61} 
Flow 842: {27 32} Flow 850: {27 23} {23 38} {38 36} {36 78} 
Flow 865: {28 10} {10 52} 
Flow 883: {28 10} {10 30} {30 8} {8 33} {33 75} 
Flow 890: {28 10} {30 8} Flow 892: {28 9} {9 6} {6 42} {42 84} 
Flow 901: {29 9} {9 10} {10 52} 
Flow 904: {14 56} 
Flow 910: {29 6} Flow 916: {9 28} {28 70} 
Flow 931: {30 8} {8 2} {2 44} 
Flow 935: {30 29} {29 6} {6 48} 
Flow 982: {31 8} {8 24} {24 15} {15 57} 
Flow 1035: {32 27} {27 69} 
Flow 1037: {6 29} Flow 1040: {38 31} {31 33} 
Flow 1050: {33 8} {8 36} {36 1} 
Flow 1051: {2 44} 
Flow 1066: {33 8} {8 36} {36 35} {35 20} {20 62} 
Flow 1076: {33 31} {31 38} {38 37} {37 79} 
Flow 1082: {34 2} {2 4} {4 1} {1 43} 
Flow 1130: {24 13} {13 55} 
Flow 1142: {35 32} Flow 1216: {37 35} {35 20} {20 62} 
Flow 1224: {31 30} {30 29} Flow 1225: {37 38} {38 31} {31 30} {30 72} 
Flow 1228: {37 38} {38 31} {31 33} {33 75} 
Flow 1233: {37 38} {38 39} {39 81} 
Flow 1245: {31 30} {30 10} {10 9} {9 51} 
Flow 1253: {5 17} {38 32} Flow 1257: {3 2} {2 21} {21 63} 
Flow 1263: {23 27} 
Flow 1264: {38 31} {31 30} {30 10} Flow 1281: {39 23} {23 32} {32 5} {5 47} 
Flow 1289: {39 23} {23 32} {32 5} {5 17} {17 59} 
Flow 1290: {39 38} {38 35} {35 18} {18 60} 
Flow 1306: {40 8} {8 42} {42 6} {6 5} {5 47} 
Flow 1316: {40 8} {8 31} {31 73} 
Flow 1330: {41 24} {24 8} {8 42} {42 6} {6 9} {9 51} 
Flow 1333: {41 24} {24 13} {13 55} 
Flow 1337: {42 6} {6 5} {5 17} Flow 1339: {35 19} {19 61} 
Flow 1358: {41 40} {40 82} 
Time taken running everything: 611 seconds
