networks/zoo_84_1377/standard/zoo_84_1377.sol
<?xml version = "1.0" encoding="UTF-8" standalone="yes"?>
<CPLEXSolution version="1.2">
 <header
   problemName="networks/zoo_84_1377/zoo_84_1377.lp"
   solutionName="incumbent"
   solutionIndex="-1"
   objectiveValue="51"
   solutionTypeValue="3"
   solutionTypeString="primal"
   solutionStatusValue="101"
   solutionStatusString="integer optimal solution"
   solutionMethodString="mip"
   primalFeasible="1"
   dualFeasible="1"
   MIPNodes="1222"
   MIPIterations="190886"
   writeLevel="3"/>
 <quality
   epInt="1.0000000000000001e-05"
   epRHS="9.9999999999999995e-07"
   maxIntInfeas="7.4998152133076701e-10"
   maxPrimalInfeas="3.7499073952587785e-09"
   maxX="4.0000000010000001"
   maxSlack="10.000000001"/>
 <variables>
  <variable name="Y(21,23)" index="1702" value="1"/>
  <variable name="Y(27,31)" index="2214" value="1"/>
  <variable name="Y(29,31)" index="2382" value="1"/>
  <variable name="Y(76,39)" index="6338" value="1"/>
  <variable name="Y(80,4)" index="6639" value="1"/>
  <variable name="Y(155,42)" index="12977" value="1"/>
  <variable name="Y(184,30)" index="15401" value="1"/>
  <variable name="Y(204,24)" index="17075" value="1"/>
  <variable name="Y(206,32)" index="17251" value="1"/>
  <variable name="Y(253,2)" index="21169" value="1"/>
  <variable name="Y(295,4)" index="24699" value="1"/>
  <variable name="Y(332,18)" index="27821" value="1"/>
  <variable name="Y(359,38)" index="30109" value="1"/>
  <variable name="Y(369,14)" index="30925" value="1"/>
  <variable name="Y(397,15)" index="33278" value="1"/>
  <variable name="Y(452,41)" index="37924" value="1"/>
  <variable name="Y(477,25)" index="40008" value="1"/>
  <variable name="Y(520,38)" index="43633" value="1"/>
  <variable name="Y(527,3)" index="44186" value="1"/>
  <variable name="Y(535,11)" index="44866" value="1"/>
  <variable name="Y(586,35)" index="49174" value="1"/>
  <variable name="Y(621,35)" index="52114" value="1"/>
  <variable name="Y(648,36)" index="54383" value="1"/>
  <variable name="Y(679,32)" index="56983" value="1"/>
  <variable name="Y(733,40)" index="61527" value="1"/>
  <variable name="Y(761,8)" index="63847" value="1"/>
  <variable name="Y(798,34)" index="66981" value="1"/>
  <variable name="Y(809,8)" index="67879" value="1"/>
  <variable name="Y(812,16)" index="68139" value="1"/>
  <variable name="Y(823,1)" index="69048" value="1"/>
  <variable name="Y(839,20)" index="70411" value="1"/>
  <variable name="Y(842,28)" index="70671" value="1"/>
  <variable name="Y(862,8)" index="72331" value="1"/>
  <variable name="Y(879,29)" index="73780" value="1"/>
  <variable name="Y(901,10)" index="75609" value="1"/>
  <variable name="Y(935,6)" index="78461" value="1"/>
  <variable name="Y(1015,7)" index="85182" value="1"/>
  <variable name="Y(1065,19)" index="89394" value="1"/>
  <variable name="Y(1076,37)" index="90336" value="1"/>
  <variable name="Y(1147,33)" index="96296" value="1"/>
  <variable name="Y(1176,21)" index="98720" value="1"/>
  <variable name="Y(1208,12)" index="101399" value="1"/>
  <variable name="Y(1222,26)" index="102589" value="1"/>
  <variable name="Y(1245,9)" index="104504" value="1"/>
  <variable name="Y(1263,27)" index="106034" value="1"/>
  <variable name="Y(1264,10)" index="106101" value="1"/>
  <variable name="Y(1289,17)" index="108208" value="1"/>
  <variable name="Y(1291,22)" index="108381" value="1"/>
  <variable name="Y(1306,5)" index="109624" value="1"/>
  <variable name="Y(1333,13)" index="111900" value="1"/>
  <variable name="Y(1358,40)" index="114027" value="1"/>
  <variable name="X(1,4,27)" index="115694" value="1"/>
  <variable name="X(1,36,21)" index="117065" value="1"/>
  <variable name="X(1,43,823)" index="119244" value="1"/>
  <variable name="X(2,3,76)" index="119874" value="1"/>
  <variable name="X(2,4,648)" index="121823" value="1"/>
  <variable name="X(2,7,1015)" index="123567" value="1"/>
  <variable name="X(2,8,733)" index="124662" value="1"/>
  <variable name="X(2,21,1176)" index="126482" value="1"/>
  <variable name="X(2,34,206)" index="126889" value="1"/>
  <variable name="X(2,44,253)" index="128313" value="1"/>
  <variable name="X(3,2,733)" index="130170" value="1"/>
  <variable name="X(3,23,76)" index="130890" value="1"/>
  <variable name="X(3,45,527)" index="132718" value="1"/>
  <variable name="X(4,1,80)" index="133648" value="1"/>
  <variable name="X(4,2,1176)" index="136121" value="1"/>
  <variable name="X(4,31,27)" index="136349" value="1"/>
  <variable name="X(4,36,648)" index="138347" value="1"/>
  <variable name="X(4,46,295)" index="139371" value="1"/>
  <variable name="X(5,6,842)" index="141295" value="1"/>
  <variable name="X(5,17,1289)" index="143119" value="1"/>
  <variable name="X(5,32,520)" index="143727" value="1"/>
  <variable name="X(5,47,1306)" index="145890" value="1"/>
  <variable name="X(6,5,1306)" index="147267" value="1"/>
  <variable name="X(6,9,842)" index="148180" value="1"/>
  <variable name="X(6,29,184)" index="148899" value="1"/>
  <variable name="X(6,42,253)" index="150345" value="1"/>
  <variable name="X(6,48,935)" index="152404" value="1"/>
  <variable name="X(7,2,206)" index="153052" value="1"/>
  <variable name="X(7,8,204)" index="154427" value="1"/>
  <variable name="X(7,49,1015)" index="156615" value="1"/>
  <variable name="X(8,2,253)" index="157230" value="1"/>
  <variable name="X(8,7,862)" index="159216" value="1"/>
  <variable name="X(8,24,204)" index="159935" value="1"/>
  <variable name="X(8,30,761)" index="161869" value="1"/>
  <variable name="X(8,31,477)" index="162962" value="1"/>
  <variable name="X(8,33,1147)" index="165009" value="1"/>
  <variable name="X(8,36,1065)" index="166304" value="1"/>
  <variable name="X(8,40,733)" index="167349" value="1"/>
  <variable name="X(8,42,1306)" index="169299" value="1"/>
  <variable name="X(8,50,809)" index="170179" value="1"/>
  <variable name="X(9,6,253)" index="171000" value="1"/>
  <variable name="X(9,10,901)" index="173025" value="1"/>
  <variable name="X(9,28,842)" index="174343" value="1"/>
  <variable name="X(9,29,879)" index="175757" value="1"/>
  <variable name="X(9,51,1245)" index="177500" value="1"/>
  <variable name="X(10,9,1245)" index="178877" value="1"/>
  <variable name="X(10,28,1264)" index="180273" value="1"/>
  <variable name="X(10,30,862)" index="181248" value="1"/>
  <variable name="X(10,52,901)" index="182664" value="1"/>
  <variable name="X(11,35,332)" index="183472" value="1"/>
  <variable name="X(11,53,535)" index="185052" value="1"/>
  <variable name="X(12,35,359)" index="186253" value="1"/>
  <variable name="X(12,54,1208)" index="188479" value="1"/>
  <variable name="X(13,24,369)" index="189017" value="1"/>
  <variable name="X(13,55,1333)" index="191358" value="1"/>
  <variable name="X(14,24,397)" index="191799" value="1"/>
  <variable name="X(14,56,369)" index="193148" value="1"/>
  <variable name="X(15,24,452)" index="194608" value="1"/>
  <variable name="X(15,57,397)" index="195930" value="1"/>
  <variable name="X(16,24,477)" index="197387" value="1"/>
  <variable name="X(16,58,812)" index="199099" value="1"/>
  <variable name="X(17,5,520)" index="200184" value="1"/>
  <variable name="X(17,59,1289)" index="202330" value="1"/>
  <variable name="X(18,35,535)" index="202953" value="1"/>
  <variable name="X(18,60,332)" index="204127" value="1"/>
  <variable name="X(19,35,586)" index="205758" value="1"/>
  <variable name="X(19,61,1065)" index="207614" value="1"/>
  <variable name="X(20,35,621)" index="208547" value="1"/>
  <variable name="X(20,62,839)" index="210142" value="1"/>
  <variable name="X(21,2,648)" index="211328" value="1"/>
  <variable name="X(21,63,1176)" index="213233" value="1"/>
  <variable name="X(22,35,679)" index="214113" value="1"/>
  <variable name="X(22,64,1291)" index="216102" value="1"/>
  <variable name="X(23,3,527)" index="216715" value="1"/>
  <variable name="X(23,3,733)" index="216921" value="7.4998147905175572e-10"/>
  <variable name="X(23,3,834)" index="217022" value="-7.4998147905175572e-10"/>
  <variable name="X(23,27,1263)" index="218828" value="1"/>
  <variable name="X(23,32,1289)" index="220231" value="1"/>
  <variable name="X(23,38,823)" index="221142" value="1"/>
  <variable name="X(23,39,76)" index="221772" value="1"/>
  <variable name="X(23,65,21)" index="223094" value="1"/>
  <variable name="X(24,8,477)" index="224927" value="1"/>
  <variable name="X(24,13,1333)" index="227160" value="1"/>
  <variable name="X(24,14,369)" index="227573" value="1"/>
  <variable name="X(24,15,397)" index="228978" value="1"/>
  <variable name="X(24,16,812)" index="230770" value="1"/>
  <variable name="X(24,41,452)" index="231787" value="1"/>
  <variable name="X(24,66,204)" index="232916" value="1"/>
  <variable name="X(25,26,798)" index="234887" value="1"/>
  <variable name="X(25,31,809)" index="236275" value="1"/>
  <variable name="X(25,67,477)" index="237320" value="1"/>
  <variable name="X(26,25,809)" index="239029" value="1"/>
  <variable name="X(26,38,798)" index="240395" value="1"/>
  <variable name="X(26,68,1222)" index="242196" value="1"/>
  <variable name="X(27,23,823)" index="243174" value="1"/>
  <variable name="X(27,32,839)" index="244567" value="1"/>
  <variable name="X(27,69,1263)" index="246368" value="1"/>
  <variable name="X(28,9,879)" index="247361" value="1"/>
  <variable name="X(28,10,862)" index="248721" value="1"/>
  <variable name="X(28,70,842)" index="250078" value="1"/>
  <variable name="X(29,6,935)" index="251548" value="1"/>
  <variable name="X(29,9,901)" index="252891" value="1"/>
  <variable name="X(29,30,184)" index="253551" value="1"/>
  <variable name="X(29,71,879)" index="255623" value="1"/>
  <variable name="X(30,8,862)" index="256983" value="1"/>
  <variable name="X(30,10,1264)" index="258762" value="1"/>
  <variable name="X(30,29,935)" index="259810" value="1"/>
  <variable name="X(30,31,295)" index="260547" value="1"/>
  <variable name="X(30,72,184)" index="261813" value="1"/>
  <variable name="X(31,4,295)" index="263301" value="1"/>
  <variable name="X(31,8,809)" index="265192" value="1"/>
  <variable name="X(31,25,477)" index="266237" value="1"/>
  <variable name="X(31,30,1264)" index="268401" value="1"/>
  <variable name="X(31,33,29)" index="268543" value="1"/>
  <variable name="X(31,38,1076)" index="270967" value="1"/>
  <variable name="X(31,73,27)" index="271295" value="1"/>
  <variable name="X(32,5,1289)" index="273934" value="1"/>
  <variable name="X(32,23,527)" index="274549" value="1"/>
  <variable name="X(32,27,679)" index="276078" value="1"/>
  <variable name="X(32,34,798)" index="277574" value="1"/>
  <variable name="X(32,35,839)" index="278992" value="1"/>
  <variable name="X(32,38,520)" index="280050" value="1"/>
  <variable name="X(32,74,206)" index="281113" value="1"/>
  <variable name="X(33,8,1065)" index="283349" value="1"/>
  <variable name="X(33,31,1076)" index="284737" value="1"/>
  <variable name="X(33,75,1147)" index="286185" value="1"/>
  <variable name="X(34,2,1015)" index="287430" value="1"/>
  <variable name="X(34,32,206)" index="287998" value="1"/>
  <variable name="X(34,76,798)" index="289967" value="1"/>
  <variable name="X(35,11,535)" index="291081" value="1"/>
  <variable name="X(35,12,1208)" index="293131" value="1"/>
  <variable name="X(35,18,332)" index="293632" value="1"/>
  <variable name="X(35,19,1065)" index="295742" value="1"/>
  <variable name="X(35,20,839)" index="296893" value="1"/>
  <variable name="X(35,22,1291)" index="298722" value="1"/>
  <variable name="X(35,32,679)" index="299487" value="1"/>
  <variable name="X(35,36,1147)" index="301332" value="1"/>
  <variable name="X(35,37,621)" index="302183" value="1"/>
  <variable name="X(35,38,359)" index="303298" value="1"/>
  <variable name="X(35,77,586)" index="304902" value="1"/>
  <variable name="X(36,1,823)" index="306516" value="1"/>
  <variable name="X(36,4,1176)" index="308246" value="1"/>
  <variable name="X(36,8,1147)" index="309594" value="1"/>
  <variable name="X(36,35,1065)" index="310889" value="1"/>
  <variable name="X(36,38,21)" index="311222" value="1"/>
  <variable name="X(36,78,648)" index="313226" value="1"/>
  <variable name="X(37,35,1208)" index="315163" value="1"/>
  <variable name="X(37,38,1222)" index="316554" value="1"/>
  <variable name="X(37,79,1076)" index="317785" value="1"/>
  <variable name="X(38,23,21)" index="318107" value="1"/>
  <variable name="X(38,26,1222)" index="320685" value="1"/>
  <variable name="X(38,31,1264)" index="322104" value="1"/>
  <variable name="X(38,32,798)" index="323015" value="1"/>
  <variable name="X(38,35,1291)" index="324885" value="1"/>
  <variable name="X(38,36,823)" index="325794" value="1"/>
  <variable name="X(38,37,1076)" index="327424" value="1"/>
  <variable name="X(38,39,359)" index="328084" value="1"/>
  <variable name="X(38,80,520)" index="329622" value="1"/>
  <variable name="X(39,23,1289)" index="331768" value="1"/>
  <variable name="X(39,38,1291)" index="333147" value="1"/>
  <variable name="X(39,81,76)" index="333309" value="1"/>
  <variable name="X(40,8,1306)" index="335916" value="1"/>
  <variable name="X(40,41,733)" index="336720" value="1"/>
  <variable name="X(40,82,1358)" index="338722" value="1"/>
  <variable name="X(41,24,1333)" index="340074" value="1"/>
  <variable name="X(41,40,1358)" index="341476" value="1"/>
  <variable name="X(41,83,452)" index="341947" value="1"/>
  <variable name="X(42,6,1306)" index="344178" value="1"/>
  <variable name="X(42,8,253)" index="344502" value="1"/>
  <variable name="X(42,84,155)" index="345781" value="1"/>
  <variable name="C(21,36)" index="347092" value="1"/>
  <variable name="C(21,38)" index="347093" value="2"/>
  <variable name="C(21,23)" index="347094" value="3"/>
  <variable name="C(27,4)" index="347119" value="1"/>
  <variable name="C(27,31)" index="347120" value="2"/>
  <variable name="C(76,3)" index="347302" value="1"/>
  <variable name="C(76,23)" index="347303" value="2"/>
  <variable name="C(76,39)" index="347304" value="3"/>
  <variable name="C(184,29)" index="347740" value="1"/>
  <variable name="C(184,30)" index="347741" value="2"/>
  <variable name="C(204,8)" index="347815" value="1"/>
  <variable name="C(204,24)" index="347816" value="2"/>
  <variable name="C(206,2)" index="347821" value="1"/>
  <variable name="C(206,34)" index="347822" value="2"/>
  <variable name="C(206,32)" index="347823" value="3"/>
  <variable name="C(253,6)" index="347979" value="1"/>
  <variable name="C(253,42)" index="347980" value="2"/>
  <variable name="C(253,8)" index="347981" value="3"/>
  <variable name="C(253,2)" index="347982" value="4"/>
  <variable name="C(295,31)" index="348183" value="1"/>
  <variable name="C(295,4)" index="348184" value="1.9999999999999998"/>
  <variable name="C(332,35)" index="348347" value="1"/>
  <variable name="C(332,18)" index="348348" value="2"/>
  <variable name="C(359,35)" index="348454" value="1"/>
  <variable name="C(359,38)" index="348455" value="2"/>
  <variable name="C(369,24)" index="348503" value="1"/>
  <variable name="C(369,14)" index="348504" value="2"/>
  <variable name="C(397,24)" index="348633" value="1"/>
  <variable name="C(397,15)" index="348634" value="2"/>
  <variable name="C(452,24)" index="348902" value="1"/>
  <variable name="C(452,41)" index="348903" value="2"/>
  <variable name="C(477,16)" index="349021" value="1.000000082740371e-09"/>
  <variable name="C(477,24)" index="349022" value="1.0000000010000001"/>
  <variable name="C(477,8)" index="349023" value="2.0000000010000001"/>
  <variable name="C(477,31)" index="349024" value="3.0000000010000001"/>
  <variable name="C(477,25)" index="349025" value="4.0000000010000001"/>
  <variable name="C(520,5)" index="349240" value="1"/>
  <variable name="C(520,32)" index="349241" value="2"/>
  <variable name="C(520,38)" index="349242" value="3"/>
  <variable name="C(527,23)" index="349277" value="1"/>
  <variable name="C(527,3)" index="349278" value="2"/>
  <variable name="C(535,35)" index="349314" value="1"/>
  <variable name="C(535,11)" index="349315" value="2"/>
  <variable name="C(586,35)" index="349546" value="1"/>
  <variable name="C(621,35)" index="349702" value="1"/>
  <variable name="C(648,2)" index="349821" value="1"/>
  <variable name="C(648,4)" index="349822" value="2"/>
  <variable name="C(648,36)" index="349823" value="3"/>
  <variable name="C(679,35)" index="349966" value="1"/>
  <variable name="C(679,32)" index="349967" value="2"/>
  <variable name="C(733,23)" index="350185" value="2.2500194353031722e-09"/>
  <variable name="C(733,3)" index="350186" value="3.0000009143549278e-09"/>
  <variable name="C(733,2)" index="350187" value="1.0000000030000009"/>
  <variable name="C(733,8)" index="350188" value="2.0000000030000011"/>
  <variable name="C(733,40)" index="350189" value="3.0000000030000002"/>
  <variable name="C(798,26)" index="350452" value="1"/>
  <variable name="C(798,38)" index="350453" value="2"/>
  <variable name="C(798,32)" index="350454" value="3"/>
  <variable name="C(798,34)" index="350455" value="4"/>
  <variable name="C(809,25)" index="350498" value="1"/>
  <variable name="C(809,31)" index="350499" value="2"/>
  <variable name="C(809,8)" index="350500" value="2.9999999999999991"/>
  <variable name="C(812,16)" index="350518" value="1"/>
  <variable name="C(823,23)" index="350555" value="1"/>
  <variable name="C(823,38)" index="350556" value="2"/>
  <variable name="C(823,36)" index="350557" value="3"/>
  <variable name="C(823,1)" index="350558" value="4"/>
  <variable name="C(834,3)" index="350611" value="-7.4998147905175572e-10"/>
  <variable name="C(839,32)" index="350636" value="1"/>
  <variable name="C(839,35)" index="350637" value="2"/>
  <variable name="C(839,20)" index="350638" value="3"/>
  <variable name="C(842,6)" index="350652" value="1"/>
  <variable name="C(842,9)" index="350653" value="2"/>
  <variable name="C(842,28)" index="350654" value="3"/>
  <variable name="C(862,10)" index="350741" value="1"/>
  <variable name="C(862,30)" index="350742" value="2"/>
  <variable name="C(862,8)" index="350743" value="3"/>
  <variable name="C(879,9)" index="350834" value="1"/>
  <variable name="C(879,29)" index="350835" value="2"/>
  <variable name="C(901,9)" index="350933" value="1"/>
  <variable name="C(901,10)" index="350934" value="2"/>
  <variable name="C(935,29)" index="351082" value="1"/>
  <variable name="C(935,6)" index="351083" value="2"/>
  <variable name="C(1015,2)" index="351359" value="1"/>
  <variable name="C(1015,7)" index="351360" value="2"/>
  <variable name="C(1065,8)" index="351550" value="1"/>
  <variable name="C(1065,36)" index="351551" value="2"/>
  <variable name="C(1065,35)" index="351552" value="2.9999999999999996"/>
  <variable name="C(1065,19)" index="351553" value="3.9999999999999996"/>
  <variable name="C(1076,31)" index="351593" value="1"/>
  <variable name="C(1076,38)" index="351594" value="2"/>
  <variable name="C(1076,37)" index="351595" value="3"/>
  <variable name="C(1147,36)" index="351865" value="1"/>
  <variable name="C(1147,8)" index="351866" value="2"/>
  <variable name="C(1147,33)" index="351867" value="3"/>
  <variable name="C(1176,4)" index="351963" value="1"/>
  <variable name="C(1176,2)" index="351964" value="2"/>
  <variable name="C(1176,21)" index="351965" value="3"/>
  <variable name="C(1208,35)" index="352081" value="1"/>
  <variable name="C(1208,12)" index="352082" value="2"/>
  <variable name="C(1222,38)" index="352143" value="1"/>
  <variable name="C(1222,26)" index="352144" value="2"/>
  <variable name="C(1245,9)" index="352231" value="0.99999999999999978"/>
  <variable name="C(1263,27)" index="352296" value="1"/>
  <variable name="C(1264,31)" index="352298" value="1"/>
  <variable name="C(1264,30)" index="352299" value="2"/>
  <variable name="C(1264,10)" index="352300" value="3"/>
  <variable name="C(1289,23)" index="352395" value="1"/>
  <variable name="C(1289,32)" index="352396" value="2"/>
  <variable name="C(1289,5)" index="352397" value="3"/>
  <variable name="C(1289,17)" index="352398" value="4"/>
  <variable name="C(1291,38)" index="352404" value="1"/>
  <variable name="C(1291,35)" index="352405" value="2"/>
  <variable name="C(1291,22)" index="352406" value="3"/>
  <variable name="C(1306,8)" index="352460" value="1"/>
  <variable name="C(1306,42)" index="352461" value="2"/>
  <variable name="C(1306,6)" index="352462" value="3"/>
  <variable name="C(1306,5)" index="352463" value="4"/>
  <variable name="C(1333,24)" index="352580" value="1"/>
  <variable name="C(1333,13)" index="352581" value="2"/>
  <variable name="C(1358,41)" index="352700" value="3"/>
  <variable name="C(1358,40)" index="352701" value="4"/>
 </variables>
</CPLEXSolution>
